results/real/sos1/may_14_211.out
Version identifier: 22.1.1.0 | 2022-11-28 | 9160aff4d
CPXPARAM_Threads                                 1
CPXPARAM_MIP_Strategy_VariableSelect             3
CPXPARAM_TimeLimit                               599.99998961300003
1 of 1 MIP starts provided solutions.
MIP start 'm1' defined initial solution with objective 135.0000.
Tried aggregator 1 time.
MIP Presolve eliminated 430 rows and 844 columns.
MIP Presolve modified 22 coefficients.
Reduced MIP has 638 rows, 1899 columns, and 29130 nonzeros.
Reduced MIP has 1899 binaries, 0 generals, 0 SOSs, and 0 indicators.
Presolve time = 0.02 sec. (55.27 ticks)
Probing time = 0.00 sec. (7.89 ticks)
Tried aggregator 1 time.
Detecting symmetries...
MIP Presolve modified 5 coefficients.
Reduced MIP has 638 rows, 1899 columns, and 29255 nonzeros.
Reduced MIP has 1899 binaries, 0 generals, 0 SOSs, and 0 indicators.
Presolve time = 0.02 sec. (46.76 ticks)
Probing time = 0.00 sec. (7.60 ticks)
Clique table members: 422.
MIP emphasis: balance optimality and feasibility.
MIP search method: dynamic search.
Parallel mode: none, using 1 thread.
Root relaxation solution time = 0.01 sec. (15.41 ticks)

        Nodes                                         Cuts/
   Node  Left     Objective  IInf  Best Integer    Best Bound    ItCnt     Gap

*     0+    0                          135.0000    22366.0000              --- 
*     0     0      integral     0      211.0000      211.0000      437    0.00%
Elapsed time = 0.07 sec. (150.46 ticks, tree = 0.00 MB, solutions = 2)

Root node processing (before b&c):
  Real time             =    0.07 sec. (150.56 ticks)
Sequential b&c:
  Real time             =    0.00 sec. (0.00 ticks)
                          ------------
Total (root+branch&cut) =    0.07 sec. (150.56 ticks)
Primal:	211
Dual:	211
Status:	Optimal
Time:	0.07
Sequence:
	4
	2
	5
	9
	2
	9
	9
	8
	1
	9
	9
	8
	9
	5
	8
	1
	9
	8
	1
	1
	9
	4
	9
	8
	9
	4
	4
	2
	10
	10
	9
	1
	4
	9
	8
	10
	9
	9
	9
	2
	9
	9
	2
	9
	10
	9
	10
	9
	9
	5
	2
	9
	9
	2
	9
	9
	9
	9
	9
	4
	2
	9
	9
	2
	9
	5
	5
	2
	10
	9
	8
	9
	10
	2
	9
	5
	2
	4
	9
	9
	9
	5
	2
	9
	4
	4
	9
	9
	2
	5
	9
	2
	9
	9
	8
	9
	9
	4
	2
	9
	9
	5
	2
	5
	1
	4
	9
	2
	1
	4
	2
	4
	9
	9
	2
	1
	1
	4
	2
	5
	9
	4
	2
	5
	9
	5
	5
	9
	5
	2
	4
	5
	9
	9
	5
	5
	9
	4
	2
	9
	9
	2
	10
	9
	2
	9
	4
	2
	10
	9
	2
	1
	9
	10
	2
	9
	9
	9
	9
	2
	9
	9
	9
	9
	9
	9
	8
	9
	9
	9
	8
	1
	9
	2
	9
	9
	2
	9
	4
	9
	9
	9
	2
	9
	9
	9
	2
	9
	5
	4
	2
	9
	3
	9
	8
	4
	9
	8
	10
	4
	4
	1
	10
	1
	2
	9
	9
	2
	9
	9
	2
